%mem=1500MB
%nprocshared=4
! Don't change the checkpoint file name, move it to TRESC working directory when Gaussian finishes its job
%chk=E:\TRESC\carbene-3et\Gaussian\scratch\Gaujob.chk
! No matter closed-shell or open-shell calculation, always unrestricted
! print one-electron integrals: iop(3/33=1)
! print two-electron integrals: iop(3/33=3) extralinks(L316) scf=conventional noraff
! print 1e,2e Fock matrices: iop(5/33=5)
# uhf/gen 6d 10f nosymm iop(3/32=2,3/27=9) int=nobasistransform

Title Card Required

! charge and spin multiplicity must be the same as TRESC calculation
0 3
 C                  0.00000000    0.00000000    0.10307000
 H                  0.00000000    0.99638600   -0.30921000
 H                  0.00000000   -0.99638600   -0.30921000

! custom basis is consistent with basis used in TRESC
H    0
 S   3   1.0
         13.0107010000      0.0391282526
          1.9622572000      0.2855840540
          0.4445379600      0.7689908599
 S   1   1.0
          0.1219496200      1.0000000000
 P   1   1.0
          0.8000000000      1.0000000000
****
C    0
 S 5 1.0
       1238.4016938000      0.0059599745
        186.2900499200      0.0422621111
         42.2511763500      0.1866575213
         11.6765579300      0.4675815865
          3.5930506500      0.4422897288
 S 1 1.0
          0.4024514700      1.0000000000
 S 1 1.0
          0.1309018300     -1.0000000000
 P 3 1.0
          9.4680970600      0.0570294585
          2.0103545100      0.3130471495
          0.5477100500      0.7605135305
 P 1 1.0
          0.1526861400      1.0000000000
 D 1 1.0
          0.8000000000      1.0000000000
****

