%chk=E:\VSCode_TRESC\tests\HO-Fe-O\Gaussian\Scratch\HO-Fe-O-5et.chk
%mem=1500MB
%nprocshared=4
# uhf/gen guess=read nosymm iop(3/32=2,3/27=9) int=nobasistransform

HO-Fe-O-5et

3 5 5 4 -1 2 -1 1
 Fe(Fragment=1)    -0.31059300    0.83857100   -0.70133600
 O(Fragment=3)      0.16809400    0.36636700   -2.38441500
 O(Fragment=2)     -0.34725400    2.44422100   -0.93727400
 H(Fragment=3)      0.29085700    1.18108800   -2.89575200

@E:\VSCode_TRESC\TRESC\basis\DKH-def2-SVP.gbs



