%chk=E:\TRESC\examples\SCN\Gaussian\Scratch\SCN.chk
%mem=1500MB
%nprocshared=4
# uhf/gen nosymm int=nobasistransform iop(3/32=2,3/27=9)

SCN

0 2
 S                  0.00000000    0.00000000    1.01848400
 C                  0.00000000    0.00000000   -0.61639600
 N                  0.00000000    0.00000000   -1.79962400

@E:\TRESC\TRESC\basis\DKH-def2-SVP.gbs